
ACE v2.3 

  instance
    name:main

  Loading variables...

  Loading constraints...

  domains
    types:1  values:729  sizes:[9:81]
  variables
    count:81  arrays:1  degrees:[3:49,4:32]
  constraints
    count:59  specific:59  arities:[1:32,9:27]
    distribution:[AllDifferentComplete:27,Extension1:32]
    wck:0.13  cpu:0.484  mem:39M595

  Building solver... 

  solver
    guaranteedAC:true
    wck:0.15  cpu:0.5  mem:42M602

  preprocessing
    effs:169  values:81  removedByAC:648  unsat:false
    wck:0.005  cpu:0.5  mem:42M602

    run1  dpts:-1..80  effs:169  wck:0.00  sols:1

  global
    effs:169
    stop:REACHED_GOAL  sols:1  sol1Cpu:0.5
    wck:0.15  cpu:0.5  mem:43M608


  Solution 1 in JSON format:
   {
    x: [
     [4, 8, 3, 9, 2, 1, 6, 5, 7],
     [9, 6, 7, 3, 4, 5, 8, 2, 1],
     [2, 5, 1, 8, 7, 6, 4, 9, 3],
     [5, 4, 8, 1, 3, 2, 9, 7, 6],
     [7, 2, 9, 5, 6, 4, 1, 3, 8],
     [1, 3, 6, 7, 9, 8, 2, 4, 5],
     [3, 7, 2, 6, 8, 9, 5, 1, 4],
     [8, 1, 4, 2, 5, 3, 7, 6, 9],
     [6, 9, 5, 4, 1, 7, 3, 8, 2]
    ]
   }

s SATISFIABLE

v <instantiation id='sol1' type='solution'> <list> x[][] </list> <values> 4 8 3 9 2 1 6 5 7 9 6 7 3 4 5 8 2 1 2 5 1 8 7 6 4 9 3 5 4 8 1 3 2 9 7 6 7 2 9 5 6 4 1 3 8 1 3 6 7 9 8 2 4 5 3 7 2 6 8 9 5 1 4 8 1 4 2 5 3 7 6 9 6 9 5 4 1 7 3 8 2 </values> </instantiation>

d WRONG DECISIONS 0
d FOUND SOLUTIONS 1
d INCOMPLETE EXPLORATION

c real time : 0.515
